instances/p2/p2_4_20-0.dzn
Alphabet = {A,C,G,T};
ns = 4;
nc = 15;
neighbours = [| I(C),I(G),I(A),I(A),I(G),I(G),I(T),Null,Null,Null,Null,Null,Null,Null,Null | I(G),I(T),I(A),Null,Null,Null,Null,Null,Null,Null,Null,Null,Null,Null,Null | I(C),I(G),I(A),I(T),I(G),I(G),I(T),I(C),I(G),I(C),I(T),I(G),I(A),I(A),I(A) | I(G),I(G),I(C),I(A),Null,Null,Null,Null,Null,Null,Null,Null,Null,Null,Null |];
