instances/p2/p2_4_20-0.txt
{
	"num_strings": 4,
	"alphabet": "ACGT",
	"strings": [
		"CGAAGGT",
		"GTA",
		"CGATGGTCGCTGAAA",
		"GGCA"
	],
	"str_length":[7,3,15,4]
}